榆树庄->北安河
weekday
5 00 10 20 30 40 50
6 00 10 19 28 36 43 49 55
7 01 07 13 19 25 31 37 43 49 55
8 01 07 13 19 25 31 37 43 50 57
9 04 11 18 25 32 39 46 53
10 00 08 16 24 32 40 48 56
11 04 12 20 28 36 44 52
12 00 08 16 24 32 40 48 56
13 04 12 20 28 36 44 52
14 00 08 16 24 32 40 48 56
15 04 12 20 28 36 44 52
16 00 08 16 24 32 40 48 56
17 04 12 20 27 33 39 45 51 57
18 03 09 15 21 27 33 39 45 51 57
19 03 09 15 21 27 34 41 48 55
20 02 09 16 23 31 39 47 55
21 03 11 19 27 35 43 51
22 00 09 19 29 39

weekend
5 00 10 20 30 40 50
6 00 10 19 28 37 45 53
7 01 09 17 25 33 41 49 57
8 05 13 21 29 37 45 53
9 01 09 17 25 33 41 49 57
10 05 13 21 29 37 45 53
11 01 09 17 25 33 41 49 57
12 05 13 21 29 37 45 53
13 01 09 17 25 33 41 49 57
14 05 13 21 29 37 45 53
15 01 09 17 25 33 41 49 57
16 05 13 21 29 37 45 53
17 01 09 17 25 33 41 49 57
18 05 13 21 29 37 45 53
19 01 09 17 25 33 41 49 57
20 05 13 21 29 37 45 53
21 01 09 17 25 33 42 51
22 00 09 19 29 39


